HUN,8,6,701
4,27,1,22,5,22,0,26,3,23,2,30
3,23,5,22,1,25,2,29,0,23,4,28
5,26,4,28,0,27,2,26,3,22,1,25
4,28,3,24,1,28,5,21,2,26,0,29
4,21,5,30,2,24,1,21,0,24,3,29
4,29,2,23,1,29,0,26,3,24,5,27
5,29,2,23,1,21,4,21,0,21,3,25
4,28,1,30,3,26,2,27,0,25,5,22
